(benchmark gametime
:status unknown
:logic QF_AUFBV
:extrafuns ((gtINDEX79  BitVec[32]))
:extrafuns ((gtFIELD__bitsForTID0__gtAGG____anonstruct_D_Work_4  Array[32:32]))
:extrafuns ((gtINDEX80  BitVec[32]))
:extrafuns ((gtAGG__rtDWork  BitVec[32]))
:extrafuns ((gtINDEX77  BitVec[32]))
:extrafuns ((gtINDEX78  BitVec[32]))
:extrafuns ((gtINDEX75  BitVec[32]))
:extrafuns ((gtINDEX76  BitVec[32]))
:extrafuns ((gtINDEX73  BitVec[32]))
:extrafuns ((gtINDEX74  BitVec[32]))
:extrafuns ((gtINDEX72  BitVec[32]))
:extrafuns ((gtINDEX71  BitVec[32]))
:extrafuns ((gtINDEX70  BitVec[32]))
:extrafuns ((gtINDEX69  BitVec[32]))
:extrafuns ((gtINDEX67  BitVec[32]))
:extrafuns ((gtINDEX68  BitVec[32]))
:extrafuns ((gtINDEX65  BitVec[32]))
:extrafuns ((gtINDEX66  BitVec[32]))
:extrafuns ((gtINDEX63  BitVec[32]))
:extrafuns ((gtINDEX64  BitVec[32]))
:extrafuns ((gtINDEX61  BitVec[32]))
:extrafuns ((gtINDEX62  BitVec[32]))
:extrafuns ((gtINDEX60  BitVec[32]))
:extrafuns ((gtINDEX58  BitVec[32]))
:extrafuns ((gtINDEX59  BitVec[32]))
:extrafuns ((gtINDEX56  BitVec[32]))
:extrafuns ((gtINDEX57  BitVec[32]))
:extrafuns ((gtINDEX54  BitVec[32]))
:extrafuns ((gtINDEX55  BitVec[32]))
:extrafuns ((gtINDEX52  BitVec[32]))
:extrafuns ((gtINDEX53  BitVec[32]))
:extrafuns ((gtINDEX50  BitVec[32]))
:extrafuns ((gtINDEX51  BitVec[32]))
:extrafuns ((gtINDEX48  BitVec[32]))
:extrafuns ((gtINDEX49  BitVec[32]))
:extrafuns ((gtINDEX47  BitVec[32]))
:extrafuns ((gtINDEX45  BitVec[32]))
:extrafuns ((gtINDEX46  BitVec[32]))
:extrafuns ((gtINDEX43  BitVec[32]))
:extrafuns ((gtINDEX44  BitVec[32]))
:extrafuns ((gtINDEX41  BitVec[32]))
:extrafuns ((gtINDEX42  BitVec[32]))
:extrafuns ((gtINDEX39  BitVec[32]))
:extrafuns ((gtINDEX40  BitVec[32]))
:extrafuns ((gtINDEX37  BitVec[32]))
:extrafuns ((gtINDEX38  BitVec[32]))
:extrafuns ((gtINDEX36  BitVec[32]))
:extrafuns ((gtINDEX35  BitVec[32]))
:extrafuns ((gtINDEX34  BitVec[32]))
:extrafuns ((gtINDEX33  BitVec[32]))
:extrafuns ((gtINDEX32  BitVec[32]))
:extrafuns ((gtINDEX30  BitVec[32]))
:extrafuns ((gtINDEX31  BitVec[32]))
:extrafuns ((gtINDEX28  BitVec[32]))
:extrafuns ((gtINDEX29  BitVec[32]))
:extrafuns ((gtINDEX26  BitVec[32]))
:extrafuns ((gtINDEX27  BitVec[32]))
:extrafuns ((gtINDEX24  BitVec[32]))
:extrafuns ((gtINDEX25  BitVec[32]))
:extrafuns ((gtINDEX23  BitVec[32]))
:extrafuns ((gtINDEX21  BitVec[32]))
:extrafuns ((gtINDEX22  BitVec[32]))
:extrafuns ((gtINDEX19  BitVec[32]))
:extrafuns ((gtINDEX20  BitVec[32]))
:extrafuns ((gtINDEX17  BitVec[32]))
:extrafuns ((gtINDEX18  BitVec[32]))
:extrafuns ((gtINDEX15  BitVec[32]))
:extrafuns ((gtINDEX16  BitVec[32]))
:extrafuns ((gtINDEX13  BitVec[32]))
:extrafuns ((gtINDEX14  BitVec[32]))
:extrafuns ((gtINDEX11  BitVec[32]))
:extrafuns ((gtINDEX12  BitVec[32]))
:extrafuns ((gtINDEX10  BitVec[32]))
:extrafuns ((gtINDEX8  BitVec[32]))
:extrafuns ((gtINDEX9  BitVec[32]))
:extrafuns ((gtINDEX6  BitVec[32]))
:extrafuns ((gtINDEX7  BitVec[32]))
:extrafuns ((gtINDEX4  BitVec[32]))
:extrafuns ((gtINDEX5  BitVec[32]))
:extrafuns ((gtINDEX2  BitVec[32]))
:extrafuns ((gtINDEX3  BitVec[32]))
:extrafuns ((gtINDEX0  BitVec[32]))
:extrafuns ((gtINDEX1  BitVec[32]))
:extrafuns ((gtFIELD__is_Eng__gtAGG____anonstruct_bitsForTID0_5_1_  Array[32:1]))
:extrafuns ((gtFIELD__is_Eng__gtAGG____anonstruct_bitsForTID0_5_2_  Array[32:1]))
:extrafuns ((sf_previousEvent_1_  BitVec[32]))
:extrafuns ((sfEvent__2_  BitVec[32]))
:extrafuns ((gtFIELD__is_Eng__gtAGG____anonstruct_bitsForTID0_5  Array[32:1]))
:extrafuns ((gtFIELD__sent__gtAGG____anonstruct_D_Work_4_1_  Array[32:32]))
:extrafuns ((gtFIELD__sent__gtAGG____anonstruct_D_Work_4_2_  Array[32:32]))
:extrafuns ((gtFIELD__is_active_Eng__gtAGG____anonstruct_bitsForTID0_5  Array[32:1]))
:extrafuns ((gtFIELD__is_active_PURI__gtAGG____anonstruct_bitsForTID0_5  Array[32:1]))
:extrafuns ((gtFIELD__is_active_PVRP__gtAGG____anonstruct_bitsForTID0_5  Array[32:1]))
:extrafuns ((gtFIELD__is_PPVARP__gtAGG____anonstruct_bitsForTID0_5  Array[32:2]))
:extrafuns ((gtFIELD__is_active_PPVARP__gtAGG____anonstruct_bitsForTID0_5  Array[32:1]))
:extrafuns ((sfEvent__1_  BitVec[32]))
:extrafuns ((gtFIELD__is_PLRI__gtAGG____anonstruct_bitsForTID0_5  Array[32:2]))
:extrafuns ((gtFIELD__is_active_PLRI__gtAGG____anonstruct_bitsForTID0_5  Array[32:1]))
:extrafuns ((gtFIELD__is_PAVI__gtAGG____anonstruct_bitsForTID0_5  Array[32:3]))
:extrafuns ((gtFIELD__is_active_PAVI__gtAGG____anonstruct_bitsForTID0_5  Array[32:1]))
:extrafuns ((sfEvent_  BitVec[32]))
:extrafuns ((gtFIELD__sent__gtAGG____anonstruct_D_Work_4  Array[32:32]))
:extrapreds ((constraint136 ))
:extrapreds ((constraint135 ))
:extrapreds ((constraint134 ))
:extrapreds ((constraint133 ))
:extrapreds ((constraint132 ))
:extrapreds ((constraint131 ))
:extrapreds ((constraint130 ))
:extrapreds ((constraint129 ))
:extrapreds ((constraint128 ))
:extrapreds ((constraint127 ))
:extrapreds ((constraint126 ))
:extrapreds ((constraint125 ))
:extrapreds ((constraint124 ))
:extrapreds ((constraint123 ))
:extrapreds ((constraint122 ))
:extrapreds ((constraint121 ))
:extrapreds ((constraint120 ))
:extrapreds ((constraint119 ))
:extrapreds ((constraint118 ))
:extrapreds ((constraint117 ))
:extrapreds ((constraint116 ))
:extrapreds ((constraint115 ))
:extrapreds ((constraint114 ))
:extrapreds ((constraint113 ))
:extrapreds ((constraint112 ))
:extrapreds ((constraint111 ))
:extrapreds ((constraint110 ))
:extrapreds ((constraint109 ))
:extrapreds ((constraint108 ))
:extrapreds ((constraint107 ))
:extrapreds ((constraint106 ))
:extrapreds ((constraint105 ))
:extrapreds ((constraint104 ))
:extrapreds ((constraint103 ))
:extrapreds ((constraint102 ))
:extrapreds ((constraint101 ))
:extrapreds ((constraint100 ))
:extrapreds ((constraint99 ))
:extrapreds ((constraint98 ))
:extrapreds ((constraint97 ))
:extrapreds ((constraint96 ))
:extrapreds ((constraint95 ))
:extrapreds ((constraint94 ))
:extrapreds ((constraint93 ))
:extrapreds ((constraint92 ))
:extrapreds ((constraint91 ))
:extrapreds ((constraint90 ))
:extrapreds ((constraint89 ))
:extrapreds ((constraint88 ))
:extrapreds ((constraint87 ))
:extrapreds ((constraint86 ))
:extrapreds ((constraint85 ))
:extrapreds ((constraint84 ))
:extrapreds ((constraint83 ))
:extrapreds ((constraint82 ))
:extrapreds ((constraint81 ))
:extrapreds ((constraint80 ))
:extrapreds ((constraint79 ))
:extrapreds ((constraint78 ))
:extrapreds ((constraint77 ))
:extrapreds ((constraint76 ))
:extrapreds ((constraint75 ))
:extrapreds ((constraint74 ))
:extrapreds ((constraint73 ))
:extrapreds ((constraint72 ))
:extrapreds ((constraint71 ))
:extrapreds ((constraint70 ))
:extrapreds ((constraint69 ))
:extrapreds ((constraint68 ))
:extrapreds ((constraint67 ))
:extrapreds ((constraint66 ))
:extrapreds ((constraint65 ))
:extrapreds ((constraint64 ))
:extrapreds ((constraint63 ))
:extrapreds ((constraint62 ))
:extrapreds ((constraint61 ))
:extrapreds ((constraint60 ))
:extrapreds ((constraint59 ))
:extrapreds ((constraint58 ))
:extrapreds ((constraint57 ))
:extrapreds ((constraint56 ))
:extrapreds ((constraint55 ))
:extrapreds ((constraint54 ))
:extrapreds ((constraint53 ))
:extrapreds ((constraint52 ))
:extrapreds ((constraint51 ))
:extrapreds ((constraint50 ))
:extrapreds ((constraint49 ))
:extrapreds ((constraint48 ))
:extrapreds ((constraint47 ))
:extrapreds ((constraint46 ))
:extrapreds ((constraint45 ))
:extrapreds ((constraint44 ))
:extrapreds ((constraint43 ))
:extrapreds ((constraint42 ))
:extrapreds ((constraint41 ))
:extrapreds ((constraint40 ))
:extrapreds ((constraint39 ))
:extrapreds ((constraint38 ))
:extrapreds ((constraint37 ))
:extrapreds ((constraint36 ))
:extrapreds ((constraint35 ))
:extrapreds ((constraint34 ))
:extrapreds ((constraint33 ))
:extrapreds ((constraint32 ))
:extrapreds ((constraint31 ))
:extrapreds ((constraint30 ))
:extrapreds ((constraint29 ))
:extrapreds ((constraint28 ))
:extrapreds ((constraint27 ))
:extrapreds ((constraint26 ))
:extrapreds ((constraint25 ))
:extrapreds ((constraint24 ))
:extrapreds ((constraint23 ))
:extrapreds ((constraint22 ))
:extrapreds ((constraint21 ))
:extrapreds ((constraint20 ))
:extrapreds ((constraint19 ))
:extrapreds ((constraint18 ))
:extrapreds ((constraint17 ))
:extrapreds ((constraint16 ))
:extrapreds ((constraint15 ))
:extrapreds ((constraint14 ))
:extrapreds ((constraint13 ))
:extrapreds ((constraint12 ))
:extrapreds ((constraint11 ))
:extrapreds ((constraint10 ))
:extrapreds ((constraint9 ))
:extrapreds ((constraint8 ))
:extrapreds ((constraint7 ))
:extrapreds ((constraint6 ))
:extrapreds ((constraint5 ))
:extrapreds ((constraint4 ))
:extrapreds ((constraint3 ))
:extrapreds ((constraint2 ))
:extrapreds ((constraint1 ))
:extrapreds ((constraint0 ))
:formula
(flet ($x701 (and constraint0 constraint1 constraint2 constraint3 constraint4 constraint5 constraint6 constraint7 constraint8 constraint9 constraint10 constraint11 constraint12 constraint13 constraint14 constraint15 constraint16 constraint17 constraint18 constraint19 constraint20 constraint21 constraint22 constraint23 constraint24 constraint25 constraint26 constraint27 constraint28 constraint29 constraint30 constraint31 constraint32 constraint33 constraint34 constraint35 constraint36 constraint37 constraint38 constraint39 constraint40 constraint41 constraint42 constraint43 constraint44 constraint45 constraint46 constraint47 constraint48 constraint49 constraint50 constraint51 constraint52 constraint53 constraint54 constraint55 constraint56 constraint57 constraint58 constraint59 constraint60 constraint61 constraint62 constraint63 constraint64 constraint65 constraint66 constraint67 constraint68 constraint69 constraint70 constraint71 constraint72 constraint73 constraint74 constraint75 constraint76 constraint77 constraint78 constraint79 constraint80 constraint81 constraint82 constraint83 constraint84 constraint85 constraint86 constraint87 constraint88 constraint89 constraint90 constraint91 constraint92 constraint93 constraint94 constraint95 constraint96 constraint97 constraint98 constraint99 constraint100 constraint101 constraint102 constraint103 constraint104 constraint105 constraint106 constraint107 constraint108 constraint109 constraint110 constraint111 constraint112 constraint113 constraint114 constraint115 constraint116 constraint117 constraint118 constraint119 constraint120 constraint121 constraint122 constraint123 constraint124 constraint125 constraint126 constraint127 constraint128 constraint129 constraint130 constraint131 constraint132 constraint133 constraint134 constraint135 constraint136))
(flet ($x425 (= gtINDEX80 (select gtFIELD__bitsForTID0__gtAGG____anonstruct_D_Work_4 gtINDEX79)))
(flet ($x421 (= gtINDEX78 (select gtFIELD__bitsForTID0__gtAGG____anonstruct_D_Work_4 gtINDEX77)))
(flet ($x417 (= gtINDEX76 (select gtFIELD__bitsForTID0__gtAGG____anonstruct_D_Work_4 gtINDEX75)))
(flet ($x413 (= gtINDEX74 (select gtFIELD__bitsForTID0__gtAGG____anonstruct_D_Work_4 gtINDEX73)))
(flet ($x405 (= gtINDEX68 (select gtFIELD__bitsForTID0__gtAGG____anonstruct_D_Work_4 gtINDEX67)))
(flet ($x401 (= gtINDEX66 (select gtFIELD__bitsForTID0__gtAGG____anonstruct_D_Work_4 gtINDEX65)))
(flet ($x397 (= gtINDEX64 (select gtFIELD__bitsForTID0__gtAGG____anonstruct_D_Work_4 gtINDEX63)))
(flet ($x393 (= gtINDEX62 (select gtFIELD__bitsForTID0__gtAGG____anonstruct_D_Work_4 gtINDEX61)))
(flet ($x388 (= gtINDEX59 (select gtFIELD__bitsForTID0__gtAGG____anonstruct_D_Work_4 gtINDEX58)))
(flet ($x384 (= gtINDEX57 (select gtFIELD__bitsForTID0__gtAGG____anonstruct_D_Work_4 gtINDEX56)))
(flet ($x380 (= gtINDEX55 (select gtFIELD__bitsForTID0__gtAGG____anonstruct_D_Work_4 gtINDEX54)))
(flet ($x376 (= gtINDEX53 (select gtFIELD__bitsForTID0__gtAGG____anonstruct_D_Work_4 gtINDEX52)))
(flet ($x372 (= gtINDEX51 (select gtFIELD__bitsForTID0__gtAGG____anonstruct_D_Work_4 gtINDEX50)))
(flet ($x368 (= gtINDEX49 (select gtFIELD__bitsForTID0__gtAGG____anonstruct_D_Work_4 gtINDEX48)))
(flet ($x363 (= gtINDEX46 (select gtFIELD__bitsForTID0__gtAGG____anonstruct_D_Work_4 gtINDEX45)))
(flet ($x359 (= gtINDEX44 (select gtFIELD__bitsForTID0__gtAGG____anonstruct_D_Work_4 gtINDEX43)))
(flet ($x355 (= gtINDEX42 (select gtFIELD__bitsForTID0__gtAGG____anonstruct_D_Work_4 gtINDEX41)))
(flet ($x351 (= gtINDEX40 (select gtFIELD__bitsForTID0__gtAGG____anonstruct_D_Work_4 gtINDEX39)))
(flet ($x347 (= gtINDEX38 (select gtFIELD__bitsForTID0__gtAGG____anonstruct_D_Work_4 gtINDEX37)))
(flet ($x338 (= gtINDEX31 (select gtFIELD__bitsForTID0__gtAGG____anonstruct_D_Work_4 gtINDEX30)))
(flet ($x334 (= gtINDEX29 (select gtFIELD__bitsForTID0__gtAGG____anonstruct_D_Work_4 gtINDEX28)))
(flet ($x330 (= gtINDEX27 (select gtFIELD__bitsForTID0__gtAGG____anonstruct_D_Work_4 gtINDEX26)))
(flet ($x326 (= gtINDEX25 (select gtFIELD__bitsForTID0__gtAGG____anonstruct_D_Work_4 gtINDEX24)))
(flet ($x321 (= gtINDEX22 (select gtFIELD__bitsForTID0__gtAGG____anonstruct_D_Work_4 gtINDEX21)))
(flet ($x317 (= gtINDEX20 (select gtFIELD__bitsForTID0__gtAGG____anonstruct_D_Work_4 gtINDEX19)))
(flet ($x313 (= gtINDEX18 (select gtFIELD__bitsForTID0__gtAGG____anonstruct_D_Work_4 gtINDEX17)))
(flet ($x309 (= gtINDEX16 (select gtFIELD__bitsForTID0__gtAGG____anonstruct_D_Work_4 gtINDEX15)))
(flet ($x305 (= gtINDEX14 (select gtFIELD__bitsForTID0__gtAGG____anonstruct_D_Work_4 gtINDEX13)))
(flet ($x301 (= gtINDEX12 (select gtFIELD__bitsForTID0__gtAGG____anonstruct_D_Work_4 gtINDEX11)))
(flet ($x296 (= gtINDEX9 (select gtFIELD__bitsForTID0__gtAGG____anonstruct_D_Work_4 gtINDEX8)))
(flet ($x292 (= gtINDEX7 (select gtFIELD__bitsForTID0__gtAGG____anonstruct_D_Work_4 gtINDEX6)))
(flet ($x288 (= gtINDEX5 (select gtFIELD__bitsForTID0__gtAGG____anonstruct_D_Work_4 gtINDEX4)))
(flet ($x284 (= gtINDEX3 (select gtFIELD__bitsForTID0__gtAGG____anonstruct_D_Work_4 gtINDEX2)))
(flet ($x280 (= gtINDEX1 (select gtFIELD__bitsForTID0__gtAGG____anonstruct_D_Work_4 gtINDEX0)))
(let (?x264 (extract[0:0] bv1[32]))
(let (?x274 (store gtFIELD__is_Eng__gtAGG____anonstruct_bitsForTID0_5_1_ gtINDEX80 ?x264))
(flet ($x537 (iff constraint55 (= gtFIELD__is_Eng__gtAGG____anonstruct_bitsForTID0_5_2_ ?x274)))
(let (?x270 (select gtFIELD__is_Eng__gtAGG____anonstruct_bitsForTID0_5_1_ gtINDEX78))
(let (?x265 (store gtFIELD__is_Eng__gtAGG____anonstruct_bitsForTID0_5 gtINDEX76 ?x264))
(flet ($x531 (iff constraint52 (= gtFIELD__is_Eng__gtAGG____anonstruct_bitsForTID0_5_1_ ?x265)))
(let (?x261 (zero_extend[31] (select gtFIELD__is_Eng__gtAGG____anonstruct_bitsForTID0_5 gtINDEX74)))
(let (?x257 (store gtFIELD__sent__gtAGG____anonstruct_D_Work_4_1_ gtINDEX72 bv0[32]))
(flet ($x527 (iff constraint50 (= gtFIELD__sent__gtAGG____anonstruct_D_Work_4_2_ ?x257)))
(let (?x145 (bvmul bv4294967295[32] bv1[32]))
(flet ($x255 (= (select gtFIELD__sent__gtAGG____anonstruct_D_Work_4_1_ gtINDEX71) ?x145))
(flet ($x251 (= (select gtFIELD__sent__gtAGG____anonstruct_D_Work_4_1_ gtINDEX70) bv9[32]))
(flet ($x247 (= (select gtFIELD__sent__gtAGG____anonstruct_D_Work_4_1_ gtINDEX69) bv4[32]))
(let (?x243 (zero_extend[31] (select gtFIELD__is_Eng__gtAGG____anonstruct_bitsForTID0_5 gtINDEX68)))
(let (?x237 (select gtFIELD__is_active_Eng__gtAGG____anonstruct_bitsForTID0_5 gtINDEX66))
(let (?x231 (select gtFIELD__is_active_PURI__gtAGG____anonstruct_bitsForTID0_5 gtINDEX64))
(let (?x225 (select gtFIELD__is_active_PVRP__gtAGG____anonstruct_bitsForTID0_5 gtINDEX62))
(flet ($x222 (= (select gtFIELD__sent__gtAGG____anonstruct_D_Work_4_1_ gtINDEX60) bv0[32]))
(let (?x217 (select gtFIELD__is_PPVARP__gtAGG____anonstruct_bitsForTID0_5 gtINDEX59))
(let (?x212 (select gtFIELD__is_PPVARP__gtAGG____anonstruct_bitsForTID0_5 gtINDEX57))
(let (?x207 (select gtFIELD__is_active_PPVARP__gtAGG____anonstruct_bitsForTID0_5 gtINDEX55))
(let (?x199 (select gtFIELD__is_PLRI__gtAGG____anonstruct_bitsForTID0_5 gtINDEX53))
(let (?x194 (select gtFIELD__is_PLRI__gtAGG____anonstruct_bitsForTID0_5 gtINDEX51))
(let (?x189 (select gtFIELD__is_active_PLRI__gtAGG____anonstruct_bitsForTID0_5 gtINDEX49))
(flet ($x186 (= (select gtFIELD__sent__gtAGG____anonstruct_D_Work_4_1_ gtINDEX47) bv0[32]))
(let (?x181 (select gtFIELD__is_PAVI__gtAGG____anonstruct_bitsForTID0_5 gtINDEX46))
(let (?x176 (select gtFIELD__is_PAVI__gtAGG____anonstruct_bitsForTID0_5 gtINDEX44))
(let (?x171 (select gtFIELD__is_PAVI__gtAGG____anonstruct_bitsForTID0_5 gtINDEX42))
(let (?x166 (select gtFIELD__is_PAVI__gtAGG____anonstruct_bitsForTID0_5 gtINDEX40))
(let (?x161 (select gtFIELD__is_active_PAVI__gtAGG____anonstruct_bitsForTID0_5 gtINDEX38))
(flet ($x153 (= gtFIELD__sent__gtAGG____anonstruct_D_Work_4_1_ (store gtFIELD__sent__gtAGG____anonstruct_D_Work_4 gtINDEX36 ?x145)))
(flet ($x150 (= (select gtFIELD__sent__gtAGG____anonstruct_D_Work_4 gtINDEX35) bv1[32]))
(flet ($x146 (= (select gtFIELD__sent__gtAGG____anonstruct_D_Work_4 gtINDEX34) ?x145))
(flet ($x140 (= (select gtFIELD__sent__gtAGG____anonstruct_D_Work_4 gtINDEX33) bv9[32]))
(flet ($x135 (= (select gtFIELD__sent__gtAGG____anonstruct_D_Work_4 gtINDEX32) bv4[32]))
(let (?x131 (zero_extend[31] (select gtFIELD__is_Eng__gtAGG____anonstruct_bitsForTID0_5 gtINDEX31)))
(let (?x125 (select gtFIELD__is_active_Eng__gtAGG____anonstruct_bitsForTID0_5 gtINDEX29))
(let (?x119 (select gtFIELD__is_active_PURI__gtAGG____anonstruct_bitsForTID0_5 gtINDEX27))
(let (?x113 (select gtFIELD__is_active_PVRP__gtAGG____anonstruct_bitsForTID0_5 gtINDEX25))
(flet ($x110 (= (select gtFIELD__sent__gtAGG____anonstruct_D_Work_4 gtINDEX23) bv0[32]))
(let (?x105 (select gtFIELD__is_PPVARP__gtAGG____anonstruct_bitsForTID0_5 gtINDEX22))
(let (?x100 (select gtFIELD__is_PPVARP__gtAGG____anonstruct_bitsForTID0_5 gtINDEX20))
(let (?x95 (select gtFIELD__is_active_PPVARP__gtAGG____anonstruct_bitsForTID0_5 gtINDEX18))
(let (?x86 (select gtFIELD__is_PLRI__gtAGG____anonstruct_bitsForTID0_5 gtINDEX16))
(let (?x81 (select gtFIELD__is_PLRI__gtAGG____anonstruct_bitsForTID0_5 gtINDEX14))
(let (?x76 (select gtFIELD__is_active_PLRI__gtAGG____anonstruct_bitsForTID0_5 gtINDEX12))
(flet ($x73 (= (select gtFIELD__sent__gtAGG____anonstruct_D_Work_4 gtINDEX10) bv0[32]))
(let (?x68 (zero_extend[29] (select gtFIELD__is_PAVI__gtAGG____anonstruct_bitsForTID0_5 gtINDEX9)))
(let (?x62 (zero_extend[29] (select gtFIELD__is_PAVI__gtAGG____anonstruct_bitsForTID0_5 gtINDEX7)))
(let (?x56 (zero_extend[29] (select gtFIELD__is_PAVI__gtAGG____anonstruct_bitsForTID0_5 gtINDEX5)))
(let (?x50 (zero_extend[29] (select gtFIELD__is_PAVI__gtAGG____anonstruct_bitsForTID0_5 gtINDEX3)))
(let (?x43 (select gtFIELD__is_active_PAVI__gtAGG____anonstruct_bitsForTID0_5 gtINDEX1))
(flet ($x700 (and (iff constraint0 (not (= sfEvent_ bv8[32]))) (iff constraint1 (not (= (zero_extend[31] ?x43) bv0[32]))) (iff constraint2 (not (= ?x50 bv1[32]))) (iff constraint3 (not (= ?x56 bv2[32]))) (iff constraint4 (not (= ?x62 bv3[32]))) (iff constraint5 (= ?x68 bv4[32])) (iff constraint6 (not $x73)) (iff constraint7 (not (= (zero_extend[31] ?x76) bv0[32]))) (iff constraint8 (not (= (zero_extend[30] ?x81) bv1[32]))) (iff constraint9 (= (zero_extend[30] ?x86) bv2[32])) (iff constraint10 (not (= sfEvent_ bv4[32]))) (iff constraint11 (not (= sfEvent_ bv5[32]))) (iff constraint12 (not (= (zero_extend[31] ?x95) bv0[32]))) (iff constraint13 (not (= (zero_extend[30] ?x100) bv1[32]))) (iff constraint14 (= (zero_extend[30] ?x105) bv2[32])) (iff constraint15 (not $x110)) (iff constraint16 (not (not (= (zero_extend[31] ?x113) bv0[32])))) (iff constraint17 (not (not (= (zero_extend[31] ?x119) bv0[32])))) (iff constraint18 (not (= (zero_extend[31] ?x125) bv0[32]))) (iff constraint19 (= ?x131 bv1[32])) (iff constraint20 (not $x135)) (iff constraint21 (not $x140)) (iff constraint22 (not $x146)) (iff constraint23 $x150) (iff constraint24 $x153) (iff constraint25 (= sf_previousEvent_1_ sfEvent_)) (iff constraint26 (= sfEvent__1_ bv2[32])) (iff constraint27 (not (= sfEvent__1_ bv8[32]))) (iff constraint28 (not (= (zero_extend[31] ?x161) bv0[32]))) (iff constraint29 (not (= (zero_extend[29] ?x166) bv1[32]))) (iff constraint30 (not (= (zero_extend[29] ?x171) bv2[32]))) (iff constraint31 (not (= (zero_extend[29] ?x176) bv3[32]))) (iff constraint32 (= (zero_extend[29] ?x181) bv4[32])) (iff constraint33 (not $x186)) (iff constraint34 (not (= (zero_extend[31] ?x189) bv0[32]))) (iff constraint35 (not (= (zero_extend[30] ?x194) bv1[32]))) (iff constraint36 (= (zero_extend[30] ?x199) bv2[32])) (iff constraint37 (not (= sfEvent__1_ bv4[32]))) (iff constraint38 (not (= sfEvent__1_ bv5[32]))) (iff constraint39 (not (= (zero_extend[31] ?x207) bv0[32]))) (iff constraint40 (not (= (zero_extend[30] ?x212) bv1[32]))) (iff constraint41 (= (zero_extend[30] ?x217) bv2[32])) (iff constraint42 (not $x222)) (iff constraint43 (not (not (= (zero_extend[31] ?x225) bv0[32])))) (iff constraint44 (not (not (= (zero_extend[31] ?x231) bv0[32])))) (iff constraint45 (not (= (zero_extend[31] ?x237) bv0[32]))) (iff constraint46 (= ?x243 bv1[32])) (iff constraint47 (not $x247)) (iff constraint48 (not $x251)) (iff constraint49 $x255) $x527 (iff constraint51 (= ?x261 bv1[32])) $x531 (iff constraint53 (= sfEvent__2_ sf_previousEvent_1_)) (iff constraint54 (= (zero_extend[31] ?x270) bv1[32])) $x537 (iff constraint56 (= gtINDEX0 gtAGG__rtDWork)) (iff constraint57 $x280) (iff constraint58 (= gtINDEX2 gtAGG__rtDWork)) (iff constraint59 $x284) (iff constraint60 (= gtINDEX4 gtAGG__rtDWork)) (iff constraint61 $x288) (iff constraint62 (= gtINDEX6 gtAGG__rtDWork)) (iff constraint63 $x292) (iff constraint64 (= gtINDEX8 gtAGG__rtDWork)) (iff constraint65 $x296) (iff constraint66 (= gtINDEX10 gtAGG__rtDWork)) (iff constraint67 (= gtINDEX11 gtAGG__rtDWork)) (iff constraint68 $x301) (iff constraint69 (= gtINDEX13 gtAGG__rtDWork)) (iff constraint70 $x305) (iff constraint71 (= gtINDEX15 gtAGG__rtDWork)) (iff constraint72 $x309) (iff constraint73 (= gtINDEX17 gtAGG__rtDWork)) (iff constraint74 $x313) (iff constraint75 (= gtINDEX19 gtAGG__rtDWork)) (iff constraint76 $x317) (iff constraint77 (= gtINDEX21 gtAGG__rtDWork)) (iff constraint78 $x321) (iff constraint79 (= gtINDEX23 gtAGG__rtDWork)) (iff constraint80 (= gtINDEX24 gtAGG__rtDWork)) (iff constraint81 $x326) (iff constraint82 (= gtINDEX26 gtAGG__rtDWork)) (iff constraint83 $x330) (iff constraint84 (= gtINDEX28 gtAGG__rtDWork)) (iff constraint85 $x334) (iff constraint86 (= gtINDEX30 gtAGG__rtDWork)) (iff constraint87 $x338) (iff constraint88 (= gtINDEX32 gtAGG__rtDWork)) (iff constraint89 (= gtINDEX33 gtAGG__rtDWork)) (iff constraint90 (= gtINDEX34 gtAGG__rtDWork)) (iff constraint91 (= gtINDEX35 gtAGG__rtDWork)) (iff constraint92 (= gtINDEX36 gtAGG__rtDWork)) (iff constraint93 (= gtINDEX37 gtAGG__rtDWork)) (iff constraint94 $x347) (iff constraint95 (= gtINDEX39 gtAGG__rtDWork)) (iff constraint96 $x351) (iff constraint97 (= gtINDEX41 gtAGG__rtDWork)) (iff constraint98 $x355) (iff constraint99 (= gtINDEX43 gtAGG__rtDWork)) (iff constraint100 $x359) (iff constraint101 (= gtINDEX45 gtAGG__rtDWork)) (iff constraint102 $x363) (iff constraint103 (= gtINDEX47 gtAGG__rtDWork)) (iff constraint104 (= gtINDEX48 gtAGG__rtDWork)) (iff constraint105 $x368) (iff constraint106 (= gtINDEX50 gtAGG__rtDWork)) (iff constraint107 $x372) (iff constraint108 (= gtINDEX52 gtAGG__rtDWork)) (iff constraint109 $x376) (iff constraint110 (= gtINDEX54 gtAGG__rtDWork)) (iff constraint111 $x380) (iff constraint112 (= gtINDEX56 gtAGG__rtDWork)) (iff constraint113 $x384) (iff constraint114 (= gtINDEX58 gtAGG__rtDWork)) (iff constraint115 $x388) (iff constraint116 (= gtINDEX60 gtAGG__rtDWork)) (iff constraint117 (= gtINDEX61 gtAGG__rtDWork)) (iff constraint118 $x393) (iff constraint119 (= gtINDEX63 gtAGG__rtDWork)) (iff constraint120 $x397) (iff constraint121 (= gtINDEX65 gtAGG__rtDWork)) (iff constraint122 $x401) (iff constraint123 (= gtINDEX67 gtAGG__rtDWork)) (iff constraint124 $x405) (iff constraint125 (= gtINDEX69 gtAGG__rtDWork)) (iff constraint126 (= gtINDEX70 gtAGG__rtDWork)) (iff constraint127 (= gtINDEX71 gtAGG__rtDWork)) (iff constraint128 (= gtINDEX72 gtAGG__rtDWork)) (iff constraint129 (= gtINDEX73 gtAGG__rtDWork)) (iff constraint130 $x413) (iff constraint131 (= gtINDEX75 gtAGG__rtDWork)) (iff constraint132 $x417) (iff constraint133 (= gtINDEX77 gtAGG__rtDWork)) (iff constraint134 $x421) (iff constraint135 (= gtINDEX79 gtAGG__rtDWork)) (iff constraint136 $x425)))
(and $x700 $x701)))))))))))))))))))))))))))))))))))))))))))))))))))))))))))))))))))))))))))))))))))))))))
)
